; benchmark generated from python API
(set-info :status unknown)
(declare-fun DISJ_W_S2_R_S1 () Bool)
(declare-fun W_S2_V5 () Bool)
(declare-fun W_S2_V2 () Bool)
(declare-fun R_S2_V3 () Bool)
(declare-fun R_S2_V1 () Bool)
(declare-fun W_S2_V3 () Bool)
(declare-fun R_S2_V5 () Bool)
(declare-fun R_S2_V4 () Bool)
(declare-fun W_S1_V4 () Bool)
(declare-fun W_S1_V5 () Bool)
(declare-fun DISJ_W_S1_W_S2 () Bool)
(declare-fun W_S2_V1 () Bool)
(declare-fun DISJ_W_S1_R_S2 () Bool)
(declare-fun DISJ_W_S2_R_S2 () Bool)
(declare-fun R_E1_V4 () Bool)
(declare-fun R_E1_V5 () Bool)
(declare-fun R_S2_V2 () Bool)
(declare-fun R_S1_V4 () Bool)
(declare-fun R_S1_V5 () Bool)
(declare-fun R_S1_V2 () Bool)
(declare-fun R_S1_V3 () Bool)
(declare-fun R_S1_V1 () Bool)
(declare-fun R_E1_V2 () Bool)
(declare-fun DISJ_W_S2_R_E1 () Bool)
(declare-fun R_E1_V3 () Bool)
(declare-fun DISJ_W_S1_R_S1 () Bool)
(declare-fun W_S2_V4 () Bool)
(declare-fun W_S1_V3 () Bool)
(declare-fun W_S1_V2 () Bool)
(declare-fun W_S1_V1 () Bool)
(declare-fun R_E1_V1 () Bool)
(declare-fun DISJ_W_S1_R_E1 () Bool)
(assert
 (let (($x4823 (not W_S2_V5)))
 (let (($x62 (not W_S2_V2)))
 (let (($x4671 (not R_S2_V3)))
 (let (($x5718 (not R_S2_V1)))
 (let (($x1723 (not (and $x5718 $x4671 $x62 $x4823 DISJ_W_S2_R_S1))))
 (let (($x2739 (not (and $x5718 (not R_S2_V5) $x62 (not W_S2_V3) DISJ_W_S2_R_S1))))
 (let (($x3373 (not (and $x5718 $x62 $x4823 (not W_S2_V3) DISJ_W_S2_R_S1))))
 (let (($x5830 (not (and $x5718 $x4671 (not R_S2_V5) $x62 DISJ_W_S2_R_S1))))
 (let (($x2258 (not (and $x5718 (not R_S2_V4) $x62 $x4823 DISJ_W_S2_R_S1))))
 (let (($x3411 (not (and $x5718 (not R_S2_V5) (not R_S2_V4) $x62 DISJ_W_S2_R_S1))))
 (let (($x5902 (not (and $x5718 (not R_S2_V4) $x62 (not W_S2_V3) DISJ_W_S2_R_S1))))
 (let (($x2463 (not (and $x5718 $x4671 (not R_S2_V4) $x62 DISJ_W_S2_R_S1))))
 (let (($x5893 (not (and (not R_S2_V5) (not W_S1_V4) (not W_S2_V3) DISJ_W_S2_R_S1))))
 (let (($x1348 (not (and (not R_S2_V5) (not R_S2_V4) (not W_S2_V3) DISJ_W_S2_R_S1))))
 (let (($x802 (not (and (not R_S2_V4) (not W_S1_V5) (not W_S2_V3) DISJ_W_S2_R_S1))))
 (let (($x83 (not (and (not R_S2_V4) $x4823 (not W_S2_V3) DISJ_W_S2_R_S1))))
 (let (($x4264 (not (and DISJ_W_S1_W_S2 DISJ_W_S2_R_S1))))
 (let (($x1863 (not (and $x4671 (not W_S1_V4) $x4823 DISJ_W_S2_R_S1))))
 (let (($x2656 (not W_S2_V1)))
 (let (($x2621 (and $x2656 $x62)))
 (let (($x3754 (not $x2621)))
 (let (($x5076 (not (and $x4671 (not R_S2_V4) $x4823 DISJ_W_S2_R_S1))))
 (let (($x4632 (not (and DISJ_W_S1_R_S2 DISJ_W_S2_R_S1))))
 (let (($x5925 (not (and $x62 DISJ_W_S2_R_S2))))
 (let (($x1332 (not (and DISJ_W_S2_R_S1 DISJ_W_S2_R_S2))))
 (let (($x1597 (not (and W_S1_V4 R_E1_V4))))
 (let (($x2673 (not (and W_S1_V5 R_E1_V5))))
 (let (($x1879 (forall ((V3_0 Int) )(forall ((V2_0 Int) )(forall ((V5_0 Int) )(forall ((V4_0 Int) )(forall ((MW_S1_V1 Bool) )(forall ((MW_S1_V3 Bool) )(forall ((MW_S1_V2 Bool) )(forall ((MW_S1_V5 Bool) )(forall ((MW_S1_V4 Bool) )(forall ((MW_S2_V1 Bool) )(forall ((MW_S2_V3 Bool) )(forall ((MW_S2_V2 Bool) )(forall ((MW_S2_V5 Bool) )(forall ((MW_S2_V4 Bool) )(forall ((S1_V1_!2447 Int) )(forall ((S1_V1_!2457 Int) )(forall ((S1_V1_!2468 Int) )(forall ((S2_V5_!2455 Int) )(forall ((S2_V5_!2465 Int) )(forall ((S2_V5_!2477 Int) )(forall ((S2_V5_!2482 Int) )(forall ((S1_V3_!2448 Int) )(forall ((S1_V3_!2458 Int) )(forall ((S1_V3_!2469 Int) )(forall ((S1_V2_!2449 Int) )(forall ((S1_V2_!2459 Int) )(forall ((S1_V2_!2470 Int) )(forall ((E1_!2446 Int) )(forall ((E1_!2467 Int) )(forall ((E1_!2473 Int) )(forall ((S2_V4_!2456 Int) )(forall ((S2_V4_!2466 Int) )(forall ((S2_V4_!2478 Int) )(forall ((S2_V4_!2483 Int) )(forall ((S1_V5_!2450 Int) )(forall ((S1_V5_!2460 Int) )(forall ((S1_V5_!2471 Int) )(forall ((S2_V1_!2452 Int) )(forall ((S2_V1_!2462 Int) )(forall ((S2_V1_!2474 Int) )(forall ((S2_V1_!2479 Int) )(forall ((S1_V4_!2451 Int) )(forall ((S1_V4_!2461 Int) )(forall ((S1_V4_!2472 Int) )(forall ((S2_V2_!2454 Int) )(forall ((S2_V2_!2464 Int) )(forall ((S2_V2_!2476 Int) )(forall ((S2_V2_!2481 Int) )(forall ((S2_V3_!2453 Int) )(forall ((S2_V3_!2463 Int) )(forall ((S2_V3_!2475 Int) )(forall ((S2_V3_!2480 Int) )(let (($x1344 (= (ite MW_S2_V4 S2_V4_!2466 (ite MW_S1_V4 S1_V4_!2461 (ite MW_S2_V4 S2_V4_!2456 (ite MW_S1_V4 S1_V4_!2451 V4_0)))) (ite MW_S2_V4 S2_V4_!2483 (ite MW_S1_V4 S1_V4_!2472 V4_0)))))
 (let (($x3321 (= (ite MW_S2_V5 S2_V5_!2465 (ite MW_S1_V5 S1_V5_!2460 (ite MW_S2_V5 S2_V5_!2455 (ite MW_S1_V5 S1_V5_!2450 V5_0)))) (ite MW_S2_V5 S2_V5_!2482 (ite MW_S1_V5 S1_V5_!2471 V5_0)))))
 (let ((?x2247 (ite MW_S1_V2 S1_V2_!2470 V2_0)))
 (let ((?x181 (ite MW_S2_V2 S2_V2_!2481 ?x2247)))
 (let ((?x5200 (ite MW_S1_V2 S1_V2_!2449 V2_0)))
 (let ((?x2753 (ite MW_S2_V2 S2_V2_!2454 ?x5200)))
 (let ((?x2245 (ite MW_S1_V2 S1_V2_!2459 ?x2753)))
 (let ((?x5726 (ite MW_S2_V2 S2_V2_!2464 ?x2245)))
 (let (($x14 (= (ite MW_S2_V3 S2_V3_!2463 (ite MW_S1_V3 S1_V3_!2458 (ite MW_S2_V3 S2_V3_!2453 (ite MW_S1_V3 S1_V3_!2448 V3_0)))) (ite MW_S2_V3 S2_V3_!2480 (ite MW_S1_V3 S1_V3_!2469 V3_0)))))
 (let ((?x323 (ite MW_S2_V1 S2_V1_!2474 E1_!2473)))
 (let ((?x1805 (+ 1 ?x323)))
 (let ((?x536 (ite MW_S2_V1 S2_V1_!2479 ?x1805)))
 (let ((?x780 (ite MW_S1_V1 S1_V1_!2447 E1_!2446)))
 (let ((?x3583 (ite MW_S2_V1 S2_V1_!2452 ?x780)))
 (let ((?x184 (+ 1 ?x3583)))
 (let ((?x3309 (ite MW_S1_V1 S1_V1_!2457 ?x184)))
 (let ((?x2642 (ite MW_S2_V1 S2_V1_!2462 ?x3309)))
 (let (($x1603 (and (not (<= V2_0 E1_!2446)) (not (<= ?x2753 ?x184)) (>= ?x2642 (+ (- 1) ?x5726)) (not (<= V2_0 E1_!2467)) (>= (ite MW_S1_V1 S1_V1_!2468 E1_!2467) (+ (- 1) ?x2247)) (not (<= ?x2247 E1_!2473)) (not (<= (ite MW_S2_V2 S2_V2_!2476 ?x2247) ?x1805)) (>= ?x536 (+ (- 1) ?x181)))))
 (let (($x32 (= S2_V3_!2475 S2_V3_!2480)))
 (let (($x3333 (not R_S2_V4)))
 (let (($x1253 (or $x3333 (= (ite MW_S1_V4 S1_V4_!2472 V4_0) (ite MW_S2_V4 S2_V4_!2478 (ite MW_S1_V4 S1_V4_!2472 V4_0))))))
 (let (($x5089 (not R_S2_V5)))
 (let (($x3276 (or $x5089 (= (ite MW_S1_V5 S1_V5_!2471 V5_0) (ite MW_S2_V5 S2_V5_!2477 (ite MW_S1_V5 S1_V5_!2471 V5_0))))))
 (let (($x4671 (not R_S2_V3)))
 (let (($x2408 (or $x4671 (= (ite MW_S1_V3 S1_V3_!2469 V3_0) (ite MW_S2_V3 S2_V3_!2475 (ite MW_S1_V3 S1_V3_!2469 V3_0))))))
 (let (($x5923 (and (or (not R_S2_V1) (= E1_!2473 ?x1805)) $x2408 (or (not R_S2_V2) (= ?x2247 (ite MW_S2_V2 S2_V2_!2476 ?x2247))) $x3276 $x1253)))
 (let (($x2519 (not $x5923)))
 (let (($x1397 (= S2_V3_!2475 S2_V3_!2463)))
 (let ((?x1548 (ite MW_S1_V4 S1_V4_!2451 V4_0)))
 (let ((?x738 (ite MW_S2_V4 S2_V4_!2456 ?x1548)))
 (let ((?x6067 (ite MW_S1_V4 S1_V4_!2461 ?x738)))
 (let ((?x3835 (ite MW_S1_V4 S1_V4_!2472 V4_0)))
 (let ((?x2975 (ite MW_S1_V5 S1_V5_!2450 V5_0)))
 (let ((?x5253 (ite MW_S2_V5 S2_V5_!2455 ?x2975)))
 (let ((?x5349 (ite MW_S1_V5 S1_V5_!2460 ?x5253)))
 (let ((?x967 (ite MW_S1_V5 S1_V5_!2471 V5_0)))
 (let ((?x1267 (ite MW_S1_V3 S1_V3_!2448 V3_0)))
 (let ((?x1519 (ite MW_S2_V3 S2_V3_!2453 ?x1267)))
 (let ((?x1649 (ite MW_S1_V3 S1_V3_!2458 ?x1519)))
 (let ((?x1314 (ite MW_S1_V3 S1_V3_!2469 V3_0)))
 (let (($x1686 (and (or (not R_S2_V1) (= E1_!2473 ?x3309)) (or $x4671 (= ?x1314 ?x1649)) (or (not R_S2_V2) (= ?x2247 ?x2245)) (or $x5089 (= ?x967 ?x5349)) (or $x3333 (= ?x3835 ?x6067)))))
 (let (($x5926 (not $x1686)))
 (let (($x3532 (= S2_V3_!2475 S2_V3_!2453)))
 (let (($x709 (and (or (not R_S2_V1) (= E1_!2473 ?x780)) (or $x4671 (= ?x1314 ?x1267)) (or (not R_S2_V2) (= ?x2247 ?x5200)) (or $x5089 (= ?x967 ?x2975)) (or $x3333 (= ?x3835 ?x1548)))))
 (let (($x320 (not $x709)))
 (let (($x3167 (= S2_V3_!2463 S2_V3_!2480)))
 (let (($x1720 (and (or (not R_S2_V1) (= ?x3309 ?x1805)) (or $x4671 (= ?x1649 (ite MW_S2_V3 S2_V3_!2475 ?x1314))) (or (not R_S2_V2) (= ?x2245 (ite MW_S2_V2 S2_V2_!2476 ?x2247))) (or $x5089 (= ?x5349 (ite MW_S2_V5 S2_V5_!2477 ?x967))) (or $x3333 (= ?x6067 (ite MW_S2_V4 S2_V4_!2478 ?x3835))))))
 (let (($x1608 (not $x1720)))
 (let (($x4878 (= S2_V3_!2463 S2_V3_!2453)))
 (let (($x60 (and (or (not R_S2_V1) (= ?x3309 ?x780)) (or $x4671 (= ?x1649 ?x1267)) (or (not R_S2_V2) (= ?x2245 ?x5200)) (or $x5089 (= ?x5349 ?x2975)) (or $x3333 (= ?x6067 ?x1548)))))
 (let (($x2265 (not $x60)))
 (let (($x1733 (= S2_V3_!2453 S2_V3_!2480)))
 (let (($x5240 (and (or (not R_S2_V1) (= ?x780 ?x1805)) (or $x4671 (= ?x1267 (ite MW_S2_V3 S2_V3_!2475 ?x1314))) (or (not R_S2_V2) (= ?x5200 (ite MW_S2_V2 S2_V2_!2476 ?x2247))) (or $x5089 (= ?x2975 (ite MW_S2_V5 S2_V5_!2477 ?x967))) (or $x3333 (= ?x1548 (ite MW_S2_V4 S2_V4_!2478 ?x3835))))))
 (let (($x712 (not $x5240)))
 (let (($x2552 (= S2_V2_!2481 S2_V2_!2476)))
 (let (($x2296 (and (or (not R_S2_V1) (= ?x323 (+ (- 1) E1_!2473))) (or $x4671 (= (ite MW_S2_V3 S2_V3_!2475 ?x1314) ?x1314)) (or (not R_S2_V2) (= (ite MW_S2_V2 S2_V2_!2476 ?x2247) ?x2247)) (or $x5089 (= (ite MW_S2_V5 S2_V5_!2477 ?x967) ?x967)) (or $x3333 (= (ite MW_S2_V4 S2_V4_!2478 ?x3835) ?x3835)))))
 (let (($x4835 (not $x2296)))
 (let (($x1876 (= S2_V2_!2481 S2_V2_!2464)))
 (let (($x1951 (and (or (not R_S2_V1) (= ?x323 (+ (- 1) ?x3309))) (or $x4671 (= (ite MW_S2_V3 S2_V3_!2475 ?x1314) ?x1649)) (or (not R_S2_V2) (= (ite MW_S2_V2 S2_V2_!2476 ?x2247) ?x2245)) (or $x5089 (= (ite MW_S2_V5 S2_V5_!2477 ?x967) ?x5349)) (or $x3333 (= (ite MW_S2_V4 S2_V4_!2478 ?x3835) ?x6067)))))
 (let (($x3407 (= S2_V2_!2464 S2_V2_!2476)))
 (let (($x1168 (and (or (not R_S2_V1) (= ?x3309 E1_!2473)) (or $x4671 (= ?x1649 ?x1314)) (or (not R_S2_V2) (= ?x2245 ?x2247)) (or $x5089 (= ?x5349 ?x967)) (or $x3333 (= ?x6067 ?x3835)))))
 (let (($x1064 (not $x1168)))
 (let (($x608 (= S2_V2_!2454 S2_V2_!2476)))
 (let (($x3873 (and (or (not R_S2_V1) (= ?x780 E1_!2473)) (or $x4671 (= ?x1267 ?x1314)) (or (not R_S2_V2) (= ?x5200 ?x2247)) (or $x5089 (= ?x2975 ?x967)) (or $x3333 (= ?x1548 ?x3835)))))
 (let (($x2924 (not $x3873)))
 (let (($x4908 (= S2_V2_!2454 S2_V2_!2464)))
 (let (($x2500 (and (or (not R_S2_V1) (= ?x780 ?x3309)) (or $x4671 (= ?x1267 ?x1649)) (or (not R_S2_V2) (= ?x5200 ?x2245)) (or $x5089 (= ?x2975 ?x5349)) (or $x3333 (= ?x1548 ?x6067)))))
 (let (($x909 (not $x2500)))
 (let (($x467 (= S1_V4_!2472 S1_V4_!2461)))
 (let (($x5905 (not R_S1_V4)))
 (let (($x938 (or $x5905 (= V4_0 ?x738))))
 (let (($x2548 (not R_S1_V5)))
 (let (($x3992 (or $x2548 (= V5_0 ?x5253))))
 (let (($x3047 (not R_S1_V2)))
 (let (($x2467 (or $x3047 (= V2_0 ?x2753))))
 (let (($x2890 (not R_S1_V3)))
 (let (($x2393 (or $x2890 (= V3_0 ?x1519))))
 (let (($x3363 (not (and (or (not R_S1_V1) (= E1_!2467 ?x184)) $x2393 $x2467 $x3992 $x938))))
 (let (($x1604 (not (and (or (not R_S1_V1) (= E1_!2446 ?x184)) $x2393 $x2467 $x3992 $x938))))
 (let (($x2354 (and (or (not R_S2_V1) (= ?x323 (+ (- 1) ?x780))) (or $x4671 (= (ite MW_S2_V3 S2_V3_!2475 ?x1314) ?x1267)) (or (not R_S2_V2) (= (ite MW_S2_V2 S2_V2_!2476 ?x2247) ?x5200)) (or $x5089 (= (ite MW_S2_V5 S2_V5_!2477 ?x967) ?x2975)) (or $x3333 (= (ite MW_S2_V4 S2_V4_!2478 ?x3835) ?x1548)))))
 (let (($x5027 (and (or (not R_E1_V2) (= V2_0 ?x2247)) (or (not R_E1_V5) (= V5_0 ?x967)) (or (not R_E1_V4) (= V4_0 ?x3835)))))
 (let (($x530 (not $x5027)))
 (let (($x703 (= E1_!2467 E1_!2446)))
 (let (($x2793 (or $x5905 (= ?x738 V4_0))))
 (let (($x2046 (or $x2548 (= ?x5253 V5_0))))
 (let (($x750 (or $x3047 (= ?x2753 V2_0))))
 (let (($x5056 (or $x2890 (= ?x1519 V3_0))))
 (let (($x5955 (and (or (not R_S1_V1) (= ?x3583 (+ (- 1) E1_!2467))) $x5056 $x750 $x2046 $x2793)))
 (let (($x5281 (not $x5955)))
 (let (($x1442 (= S1_V2_!2459 S1_V2_!2449)))
 (let (($x2756 (and (or (not R_S1_V1) (= ?x3583 (+ (- 1) E1_!2446))) $x5056 $x750 $x2046 $x2793)))
 (let (($x2950 (not $x2756)))
 (let (($x5260 (and (or $x2950 (= S1_V1_!2457 S1_V1_!2447)) (or (not (or (not R_S1_V1) $x703)) (= S1_V1_!2468 S1_V1_!2447)) (or $x3363 (= S1_V1_!2468 S1_V1_!2457)) (or $x909 (= S2_V5_!2455 S2_V5_!2465)) (or $x2924 (= S2_V5_!2455 S2_V5_!2477)) (or $x712 (= S2_V5_!2455 S2_V5_!2482)) (or $x1064 (= S2_V5_!2465 S2_V5_!2477)) (or $x1608 (= S2_V5_!2465 S2_V5_!2482)) (or $x4835 (= S2_V5_!2482 S2_V5_!2477)) (or $x2950 (= S1_V3_!2458 S1_V3_!2448)) (or $x5281 (= S1_V3_!2458 S1_V3_!2469)) (or (not (or (not R_S1_V1) $x703)) (= S1_V3_!2469 S1_V3_!2448)) (or $x2950 $x1442) (or $x5281 (= S1_V2_!2459 S1_V2_!2470)) (or (not (or (not R_S1_V1) $x703)) (= S1_V2_!2470 S1_V2_!2449)) (or $x530 (= E1_!2446 E1_!2473)) $x703 (or $x530 (= E1_!2467 E1_!2473)) (or $x2265 (= S2_V4_!2466 S2_V4_!2456)) (or $x1064 (= S2_V4_!2466 S2_V4_!2478)) (or $x1608 (= S2_V4_!2466 S2_V4_!2483)) (or $x320 (= S2_V4_!2478 S2_V4_!2456)) (or $x2519 (= S2_V4_!2478 S2_V4_!2483)) (or (not $x2354) (= S2_V4_!2483 S2_V4_!2456)) (or $x1604 (= S1_V5_!2450 S1_V5_!2460)) (or (not (or (not R_S1_V1) $x703)) (= S1_V5_!2471 S1_V5_!2450)) (or $x3363 (= S1_V5_!2471 S1_V5_!2460)) (or $x712 (= S2_V1_!2452 S2_V1_!2479)) (or $x2265 (= S2_V1_!2462 S2_V1_!2452)) (or $x1608 (= S2_V1_!2462 S2_V1_!2479)) (or $x320 (= S2_V1_!2474 S2_V1_!2452)) (or $x5926 (= S2_V1_!2474 S2_V1_!2462)) (or $x2519 (= S2_V1_!2474 S2_V1_!2479)) (or $x1604 (= S1_V4_!2451 S1_V4_!2461)) (or (not (or (not R_S1_V1) (= E1_!2446 E1_!2467))) (= S1_V4_!2451 S1_V4_!2472)) (or $x3363 $x467) (or $x909 $x4908) (or $x2924 $x608) (or $x712 (= S2_V2_!2454 S2_V2_!2481)) (or $x1064 $x3407) (or (not $x1951) $x1876) (or $x4835 $x2552) (or $x712 $x1733) (or $x2265 $x4878) (or $x1608 $x3167) (or $x320 $x3532) (or $x5926 $x1397) (or $x2519 $x32) (not MW_S1_V1) (not MW_S1_V2) (or (not MW_S1_V5) W_S1_V5) (or (not MW_S1_V4) W_S1_V4) (or (not MW_S2_V1) W_S2_V1) (or (not MW_S2_V3) W_S2_V3) (or (not MW_S2_V2) W_S2_V2) (or (not MW_S2_V5) W_S2_V5))))
 (or (not $x5260) (not $x1603) (and (= ?x2642 ?x536) $x14 (= ?x5726 ?x181) $x3321 $x1344))))))))))))))))))))))))))))))))))))))))))))))))))))))))))))))))))))))))))))))))))))))))))))))))
 )
 )
 )
 )
 )
 )
 )
 )
 )
 )
 )
 )
 )
 )
 )
 )
 )
 )
 )
 )
 )
 )
 )
 )
 )
 )
 )
 )
 )
 )
 )
 )
 )
 )
 )
 )
 )
 )
 )
 )
 )
 )
 )
 )
 )
 )
 )
 )
 )
 )
 )
 ))
 (let (($x3620 (or (and W_S2_V2 R_E1_V2) (and W_S2_V5 R_E1_V5) R_E1_V4)))
 (let (($x2923 (= DISJ_W_S2_R_E1 (not $x3620))))
 (let (($x39 (and W_S2_V5 R_S2_V5)))
 (let (($x487 (and W_S2_V2 R_S2_V2)))
 (let (($x2814 (and W_S2_V3 R_S2_V3)))
 (let (($x1217 (and W_S2_V1 R_S2_V1)))
 (let (($x410 (= DISJ_W_S2_R_S2 (not (or $x1217 $x2814 $x487 $x39 R_S2_V4)))))
 (let (($x2218 (and W_S2_V5 R_S1_V5)))
 (let (($x3820 (and W_S2_V2 R_S1_V2)))
 (let (($x860 (and W_S2_V3 R_S1_V3)))
 (let (($x4986 (and W_S2_V1 R_S1_V1)))
 (let (($x2844 (= DISJ_W_S2_R_S1 (not (or $x4986 $x860 $x3820 $x2218 R_S1_V4)))))
 (let (($x2110 (= DISJ_W_S1_W_S2 (not (or W_S2_V3 (and W_S1_V5 W_S2_V5) W_S1_V4)))))
 (let (($x3367 (not R_E1_V3)))
 (let (($x2077 (not (or R_S2_V3 (and W_S1_V5 R_S2_V5) (and W_S1_V4 R_S2_V4)))))
 (let (($x4906 (= DISJ_W_S1_R_S2 $x2077)))
 (let (($x1238 (not (or R_S1_V3 (and W_S1_V5 R_S1_V5) (and W_S1_V4 R_S1_V4)))))
 (let (($x207 (= DISJ_W_S1_R_S1 $x1238)))
 (let (($x2922 (not R_S1_V1)))
 (let (($x1299 (and $x2922 DISJ_W_S1_R_S1)))
 (let (($x1746 (and $x62 DISJ_W_S2_R_S1 DISJ_W_S1_R_S1)))
 (let (($x1882 (or $x1746 $x2621 $x1299)))
 (let (($x1158 (not W_S1_V2)))
 (let (($x673 (not W_S1_V1)))
 (let (($x3592 (not R_E1_V1)))
 (let (($x1533 (and DISJ_W_S1_R_E1 $x3592 $x673 $x1158 $x1882 W_S1_V3 W_S2_V4 $x207 $x4906 $x3367 $x2110 $x2844 $x410 $x2923 $x1879 $x2673 $x1597)))
 (and $x1533 $x1332 $x5925 $x4632 $x5076 $x3754 $x1863 $x4264 $x83 $x802 $x1348 $x5893 $x2463 $x5902 $x3411 $x2258 $x5830 $x3373 $x2739 $x1723))))))))))))))))))))))))))))))))))))))))))))))))))))))))
(check-sat)
